NAME :
TYPE : CCVRP
COMMENT :
DIMENSION : 253
CAPACITY : 1000
EDGE_WEIGHT_TYPE : EUC_2D_DBL
NODE_COORD_TYPE: TWOD_COORD
NODE_COORD_SECTION
1 0.0000 0.0000
2 3.0000 1.0000
3 3.0000 3.0000
4 1.0000 3.0000
5 -1.0000 3.0000
6 -3.0000 3.0000
7 -3.0000 1.0000
8 -3.0000 -1.0000
9 -3.0000 -3.0000
10 -1.0000 -3.0000
11 1.0000 -3.0000
12 3.0000 -3.0000
13 3.0000 -1.0000
14 5.0000 1.0000
15 5.0000 3.0000
16 5.0000 5.0000
17 3.0000 5.0000
18 1.0000 5.0000
19 -1.0000 5.0000
20 -3.0000 5.0000
21 -5.0000 5.0000
22 -5.0000 3.0000
23 -5.0000 1.0000
24 -5.0000 -1.0000
25 -5.0000 -3.0000
26 -5.0000 -5.0000
27 -3.0000 -5.0000
28 -1.0000 -5.0000
29 1.0000 -5.0000
30 3.0000 -5.0000
31 5.0000 -5.0000
32 5.0000 -3.0000
33 5.0000 -1.0000
34 7.0000 1.0000
35 7.0000 3.0000
36 7.0000 5.0000
37 7.0000 7.0000
38 5.0000 7.0000
39 3.0000 7.0000
40 1.0000 7.0000
41 -1.0000 7.0000
42 -3.0000 7.0000
43 -5.0000 7.0000
44 -7.0000 7.0000
45 -7.0000 5.0000
46 -7.0000 3.0000
47 -7.0000 1.0000
48 -7.0000 -1.0000
49 -7.0000 -3.0000
50 -7.0000 -5.0000
51 -7.0000 -7.0000
52 -5.0000 -7.0000
53 -3.0000 -7.0000
54 -1.0000 -7.0000
55 1.0000 -7.0000
56 3.0000 -7.0000
57 5.0000 -7.0000
58 7.0000 -7.0000
59 7.0000 -5.0000
60 7.0000 -3.0000
61 7.0000 -1.0000
62 9.0000 1.0000
63 9.0000 3.0000
64 9.0000 5.0000
65 9.0000 7.0000
66 9.0000 9.0000
67 7.0000 9.0000
68 5.0000 9.0000
69 3.0000 9.0000
70 1.0000 9.0000
71 -1.0000 9.0000
72 -3.0000 9.0000
73 -5.0000 9.0000
74 -7.0000 9.0000
75 -9.0000 9.0000
76 -9.0000 7.0000
77 -9.0000 5.0000
78 -9.0000 3.0000
79 -9.0000 1.0000
80 -9.0000 -1.0000
81 -9.0000 -3.0000
82 -9.0000 -5.0000
83 -9.0000 -7.0000
84 -9.0000 -9.0000
85 -7.0000 -9.0000
86 -5.0000 -9.0000
87 -3.0000 -9.0000
88 -1.0000 -9.0000
89 1.0000 -9.0000
90 3.0000 -9.0000
91 5.0000 -9.0000
92 7.0000 -9.0000
93 9.0000 -9.0000
94 9.0000 -7.0000
95 9.0000 -5.0000
96 9.0000 -3.0000
97 9.0000 -1.0000
98 11.0000 1.0000
99 11.0000 3.0000
100 11.0000 5.0000
101 11.0000 7.0000
102 11.0000 9.0000
103 11.0000 11.0000
104 9.0000 11.0000
105 7.0000 11.0000
106 5.0000 11.0000
107 3.0000 11.0000
108 1.0000 11.0000
109 -1.0000 11.0000
110 -3.0000 11.0000
111 -5.0000 11.0000
112 -7.0000 11.0000
113 -9.0000 11.0000
114 -11.0000 11.0000
115 -11.0000 9.0000
116 -11.0000 7.0000
117 -11.0000 5.0000
118 -11.0000 3.0000
119 -11.0000 1.0000
120 -11.0000 -1.0000
121 -11.0000 -3.0000
122 -11.0000 -5.0000
123 -11.0000 -7.0000
124 -11.0000 -9.0000
125 -11.0000 -11.0000
126 -9.0000 -11.0000
127 -7.0000 -11.0000
128 -5.0000 -11.0000
129 -3.0000 -11.0000
130 -1.0000 -11.0000
131 1.0000 -11.0000
132 3.0000 -11.0000
133 5.0000 -11.0000
134 7.0000 -11.0000
135 9.0000 -11.0000
136 11.0000 -11.0000
137 11.0000 -9.0000
138 11.0000 -7.0000
139 11.0000 -5.0000
140 11.0000 -3.0000
141 11.0000 -1.0000
142 13.0000 1.0000
143 13.0000 3.0000
144 13.0000 5.0000
145 13.0000 7.0000
146 13.0000 9.0000
147 13.0000 11.0000
148 13.0000 13.0000
149 11.0000 13.0000
150 9.0000 13.0000
151 7.0000 13.0000
152 5.0000 13.0000
153 3.0000 13.0000
154 1.0000 13.0000
155 -1.0000 13.0000
156 -3.0000 13.0000
157 -5.0000 13.0000
158 -7.0000 13.0000
159 -9.0000 13.0000
160 -11.0000 13.0000
161 -13.0000 13.0000
162 -13.0000 11.0000
163 -13.0000 9.0000
164 -13.0000 7.0000
165 -13.0000 5.0000
166 -13.0000 3.0000
167 -13.0000 1.0000
168 -13.0000 -1.0000
169 -13.0000 -3.0000
170 -13.0000 -5.0000
171 -13.0000 -7.0000
172 -13.0000 -9.0000
173 -13.0000 -11.0000
174 -13.0000 -13.0000
175 -11.0000 -13.0000
176 -9.0000 -13.0000
177 -7.0000 -13.0000
178 -5.0000 -13.0000
179 -3.0000 -13.0000
180 -1.0000 -13.0000
181 1.0000 -13.0000
182 3.0000 -13.0000
183 5.0000 -13.0000
184 7.0000 -13.0000
185 9.0000 -13.0000
186 11.0000 -13.0000
187 13.0000 -13.0000
188 13.0000 -11.0000
189 13.0000 -9.0000
190 13.0000 -7.0000
191 13.0000 -5.0000
192 13.0000 -3.0000
193 13.0000 -1.0000
194 15.0000 1.0000
195 15.0000 3.0000
196 15.0000 5.0000
197 15.0000 7.0000
198 15.0000 9.0000
199 15.0000 11.0000
200 15.0000 13.0000
201 15.0000 15.0000
202 13.0000 15.0000
203 11.0000 15.0000
204 9.0000 15.0000
205 7.0000 15.0000
206 5.0000 15.0000
207 3.0000 15.0000
208 1.0000 15.0000
209 -1.0000 15.0000
210 -3.0000 15.0000
211 -5.0000 15.0000
212 -7.0000 15.0000
213 -9.0000 15.0000
214 -11.0000 15.0000
215 -13.0000 15.0000
216 -15.0000 15.0000
217 -15.0000 13.0000
218 -15.0000 11.0000
219 -15.0000 9.0000
220 -15.0000 7.0000
221 -15.0000 5.0000
222 -15.0000 3.0000
223 -15.0000 1.0000
224 -15.0000 -1.0000
225 -15.0000 -3.0000
226 -15.0000 -5.0000
227 -15.0000 -7.0000
228 -15.0000 -9.0000
229 -15.0000 -11.0000
230 -15.0000 -13.0000
231 -15.0000 -15.0000
232 -13.0000 -15.0000
233 -11.0000 -15.0000
234 -9.0000 -15.0000
235 -7.0000 -15.0000
236 -5.0000 -15.0000
237 -3.0000 -15.0000
238 -1.0000 -15.0000
239 1.0000 -15.0000
240 3.0000 -15.0000
241 5.0000 -15.0000
242 7.0000 -15.0000
243 9.0000 -15.0000
244 11.0000 -15.0000
245 13.0000 -15.0000
246 15.0000 -15.0000
247 15.0000 -13.0000
248 15.0000 -11.0000
249 15.0000 -9.0000
250 15.0000 -7.0000
251 15.0000 -5.0000
252 15.0000 -3.0000
253 15.0000 -1.0000
DEMAND_SECTION
1 0
2 300
3 300
4 300
5 300
6 300
7 300
8 300
9 300
10 300
11 300
12 300
13 300
14 180
15 180
16 180
17 180
18 180
19 180
20 180
21 180
22 180
23 180
24 180
25 180
26 180
27 180
28 180
29 180
30 180
31 180
32 180
33 180
34 128
35 128
36 128
37 128
38 128
39 128
40 128
41 128
42 128
43 128
44 128
45 128
46 128
47 128
48 128
49 128
50 128
51 128
52 128
53 128
54 128
55 128
56 128
57 128
58 128
59 128
60 128
61 128
62 100
63 100
64 100
65 100
66 100
67 100
68 100
69 100
70 100
71 100
72 100
73 100
74 100
75 100
76 100
77 100
78 100
79 100
80 100
81 100
82 100
83 100
84 100
85 100
86 100
87 100
88 100
89 100
90 100
91 100
92 100
93 100
94 100
95 100
96 100
97 100
98 81
99 81
100 81
101 81
102 81
103 81
104 81
105 81
106 81
107 81
108 81
109 81
110 81
111 81
112 81
113 81
114 81
115 81
116 81
117 81
118 81
119 81
120 81
121 81
122 81
123 81
124 81
125 81
126 81
127 81
128 81
129 81
130 81
131 81
132 81
133 81
134 81
135 81
136 81
137 81
138 81
139 81
140 81
141 81
142 69
143 69
144 69
145 69
146 69
147 69
148 69
149 69
150 69
151 69
152 69
153 69
154 69
155 69
156 69
157 69
158 69
159 69
160 69
161 69
162 69
163 69
164 69
165 69
166 69
167 69
168 69
169 69
170 69
171 69
172 69
173 69
174 69
175 69
176 69
177 69
178 69
179 69
180 69
181 69
182 69
183 69
184 69
185 69
186 69
187 69
188 69
189 69
190 69
191 69
192 69
193 69
194 60
195 60
196 60
197 60
198 60
199 60
200 60
201 60
202 60
203 60
204 60
205 60
206 60
207 60
208 60
209 60
210 60
211 60
212 60
213 60
214 60
215 60
216 60
217 60
218 60
219 60
220 60
221 60
222 60
223 60
224 60
225 60
226 60
227 60
228 60
229 60
230 60
231 60
232 60
233 60
234 60
235 60
236 60
237 60
238 60
239 60
240 60
241 60
242 60
243 60
244 60
245 60
246 60
247 60
248 60
249 60
250 60
251 60
252 60
253 60
CLUSTER_SECTION
1 37
2 3
3 4
4 3
5 2
6 2
7 5
8 5
9 6
10 6
11 7
12 7
13 8
14 4
15 4
16 9
17 9
18 10
19 10
20 11
21 1
22 1
23 11
24 12
25 12
26 13
27 13
28 14
29 14
30 15
31 15
32 8
33 8
34 16
35 9
36 9
37 9
38 17
39 10
40 10
41 10
42 11
43 1
44 1
45 1
46 11
47 12
48 12
49 12
50 13
51 13
52 13
53 14
54 14
55 14
56 15
57 15
58 15
59 18
60 16
61 16
62 16
63 16
64 17
65 17
66 17
67 17
68 17
69 17
70 19
71 11
72 19
73 20
74 20
75 20
76 20
77 21
78 21
79 21
80 22
81 22
82 22
83 23
84 23
85 23
86 23
87 24
88 24
89 24
90 25
91 18
92 18
93 18
94 18
95 18
96 18
97 16
98 26
99 26
100 26
101 27
102 27
103 27
104 27
105 28
106 19
107 19
108 19
109 19
110 19
111 20
112 20
113 20
114 29
115 21
116 21
117 21
118 21
119 21
120 22
121 22
122 22
123 23
124 23
125 23
126 23
127 24
128 24
129 24
130 24
131 24
132 25
133 25
134 25
135 30
136 30
137 30
138 30
139 31
140 26
141 26
142 26
143 26
144 26
145 27
146 27
147 27
148 28
149 28
150 28
151 28
152 28
153 19
154 19
155 32
156 20
157 32
158 29
159 29
160 29
161 29
162 29
163 29
164 29
165 32
166 33
167 22
168 22
169 22
170 33
171 33
172 34
173 34
174 34
175 34
176 34
177 35
178 35
179 35
180 25
181 25
182 25
183 25
184 25
185 30
186 30
187 30
188 30
189 30
190 31
191 31
192 26
193 26
194 31
195 31
196 27
197 27
198 27
199 36
200 36
201 36
202 32
203 28
204 28
205 28
206 28
207 28
208 32
209 32
210 32
211 32
212 32
213 29
214 29
215 29
216 32
217 32
218 32
219 33
220 33
221 33
222 33
223 33
224 33
225 33
226 33
227 33
228 34
229 34
230 34
231 34
232 34
233 34
234 35
235 35
236 35
237 35
238 35
239 35
240 35
241 35
242 30
243 35
244 36
245 36
246 36
247 36
248 31
249 31
250 31
251 31
252 31
253 31
DEPOT_SECTION
1
-1
EOF
